NAME: random-70-28901
TYPE: TSP
COMMENT: size=70 seed=28901
DIMENSION: 142
EDGE_WEIGHT_TYPE: EUC_2D
NODE_COORD_SECTION
+0 107 102
-0 107 102
+1 71 856
-1 871 585
+2 719 398
-2 739 548
+3 587 489
-3 672 927
+4 415 195
-4 433 55
+5 948 613
-5 575 627
+6 175 117
-6 120 472
+7 982 380
-7 474 110
+8 817 530
-8 179 891
+9 978 182
-9 952 695
+10 334 260
-10 498 252
+11 622 545
-11 90 495
+12 787 693
-12 557 371
+13 371 129
-13 67 126
+14 904 475
-14 311 353
+15 707 159
-15 762 284
+16 143 981
-16 200 174
+17 451 876
-17 408 887
+18 606 443
-18 795 380
+19 598 727
-19 749 196
+20 787 613
-20 403 42
+21 646 177
-21 386 649
+22 756 538
-22 255 932
+23 837 84
-23 851 463
+24 993 597
-24 37 509
+25 785 816
-25 671 37
+26 463 471
-26 547 812
+27 332 822
-27 39 109
+28 129 954
-28 609 753
+29 743 743
-29 383 669
+30 297 912
-30 552 677
+31 823 610
-31 231 879
+32 890 243
-32 544 150
+33 314 575
-33 17 86
+34 574 351
-34 981 62
+35 652 767
-35 707 550
+36 570 779
-36 234 857
+37 793 60
-37 502 226
+38 221 288
-38 832 581
+39 75 573
-39 50 303
+40 9 363
-40 116 292
+41 898 521
-41 298 156
+42 965 8
-42 849 382
+43 102 449
-43 153 564
+44 39 371
-44 772 21
+45 538 580
-45 859 517
+46 596 545
-46 816 989
+47 807 707
-47 251 734
+48 138 99
-48 57 861
+49 577 869
-49 820 354
+50 780 577
-50 755 595
+51 998 748
-51 687 784
+52 886 342
-52 704 396
+53 426 980
-53 528 857
+54 781 584
-54 569 628
+55 106 784
-55 165 228
+56 221 429
-56 962 214
+57 707 524
-57 144 426
+58 854 350
-58 550 218
+59 544 685
-59 665 391
+60 708 879
-60 91 42
+61 872 191
-61 951 275
+62 362 220
-62 445 663
+63 558 357
-63 623 365
+64 475 435
-64 427 683
+65 783 625
-65 505 966
+66 269 758
-66 194 623
+67 763 706
-67 471 577
+68 451 996
-68 576 321
+69 404 166
-69 327 512
+70 941 643
-70 833 945
PRECEDENCE_SECTION
+0 -0
+1 -1
+2 -2
+3 -3
+4 -4
+5 -5
+6 -6
+7 -7
+8 -8
+9 -9
+10 -10
+11 -11
+12 -12
+13 -13
+14 -14
+15 -15
+16 -16
+17 -17
+18 -18
+19 -19
+20 -20
+21 -21
+22 -22
+23 -23
+24 -24
+25 -25
+26 -26
+27 -27
+28 -28
+29 -29
+30 -30
+31 -31
+32 -32
+33 -33
+34 -34
+35 -35
+36 -36
+37 -37
+38 -38
+39 -39
+40 -40
+41 -41
+42 -42
+43 -43
+44 -44
+45 -45
+46 -46
+47 -47
+48 -48
+49 -49
+50 -50
+51 -51
+52 -52
+53 -53
+54 -54
+55 -55
+56 -56
+57 -57
+58 -58
+59 -59
+60 -60
+61 -61
+62 -62
+63 -63
+64 -64
+65 -65
+66 -66
+67 -67
+68 -68
+69 -69
+70 -70
EOF
